c CNF file generated from BLIF2CNF script.
c Original BLIF file was blif/newcond.blif
p cnf 39 272
-2 -8 0
6 -8 0
-7 -8 0
 -8 0
- -8 0
8 2 -6 7 -   0
-8 7 0
3 -9 0
-7 -9 0
 -9 0
 -9 0
- -9 0
9 -3 7 - -   0
-9 7 0
-2 -10 0
-7 -10 0
 -10 0
 -10 0
- -10 0
10 2 7 - -   0
-10 7 0
-3 -11 0
7 -11 0
- -11 0
- -11 0
- -11 0
11 3 -7     0
-11 7 0
3 -12 0
-7 -12 0
 -12 0
- -12 0
- -12 0
12 -3 7 -    0
-12 7 0
7 -13 0
- -13 0
- -13 0
- -13 0
- -13 0
13 -7      0
-13 7 0
1 -14 0
7 -14 0
 -14 0
- -14 0
- -14 0
 -14 0
14 -1 -7 -   -  0
-14 7 0
-4 -15 0
5 -15 0
6 -15 0
-7 -15 0
 -15 0
- -15 0
15 4 -5 -6 7 -   0
-15 7 0
4 -16 0
-5 -16 0
6 -16 0
-7 -16 0
 -16 0
- -16 0
16 -4 5 -6 7 -   0
-16 7 0
-4 -17 0
-5 -17 0
-7 -17 0
 -17 0
 -17 0
- -17 0
17 4 5 7 - -   0
-17 7 0
-2 -18 0
-3 -18 0
-6 -18 0
7 -18 0
- -18 0
- -18 0
18 2 3 6 -7    0
-18 7 0
-2 -19 0
-6 -19 0
7 -19 0
- -19 0
- -19 0
- -19 0
19 2 6 -7     0
-19 7 0
-1 -20 0
-2 -20 0
-7 -20 0
 -20 0
- -20 0
- -20 0
 -20 0
20 1 2 7 -   -  0
-20 7 0
-1 -21 0
3 -21 0
-7 -21 0
 -21 0
- -21 0
- -21 0
 -21 0
21 1 -3 7 -   -  0
-21 7 0
2 -22 0
-3 -22 0
-4 -22 0
-5 -22 0
7 -22 0
- -22 0
- -22 0
22 -2 3 4 5 -7    0
-22 7 0
2 -23 0
4 -23 0
5 -23 0
-7 -23 0
 -23 0
- -23 0
- -23 0
23 -2 -4 -5 7 -    0
-23 7 0
2 -24 0
-4 -24 0
-5 -24 0
7 -24 0
- -24 0
- -24 0
- -24 0
24 -2 4 5 -7     0
-24 7 0
-1 -25 0
-4 -25 0
5 -25 0
6 -25 0
-7 -25 0
 -25 0
- -25 0
- -25 0
25 1 4 -5 -6 7 -    0
-25 7 0
-1 -26 0
4 -26 0
-5 -26 0
6 -26 0
-7 -26 0
 -26 0
- -26 0
- -26 0
26 1 -4 5 -6 7 -    0
-26 7 0
-1 -27 0
-4 -27 0
-5 -27 0
-7 -27 0
 -27 0
- -27 0
- -27 0
 -27 0
27 1 4 5 7 -   -  0
-27 7 0
2 -28 0
-3 -28 0
-4 -28 0
5 -28 0
-6 -28 0
7 -28 0
 -28 0
- -28 0
28 -2 3 4 -5 6 -7 -   0
-28 7 0
2 -29 0
-3 -29 0
4 -29 0
-5 -29 0
-6 -29 0
7 -29 0
 -29 0
- -29 0
29 -2 3 -4 5 6 -7 -   0
-29 7 0
2 -30 0
-4 -30 0
5 -30 0
-6 -30 0
7 -30 0
 -30 0
- -30 0
- -30 0
30 -2 4 -5 6 -7 -    0
-30 7 0
2 -31 0
4 -31 0
-5 -31 0
-6 -31 0
7 -31 0
 -31 0
- -31 0
- -31 0
31 -2 -4 5 6 -7 -    0
-31 7 0
2 -32 0
-3 -32 0
4 -32 0
5 -32 0
7 -32 0
 -32 0
 -32 0
- -32 0
32 -2 3 -4 -5 -7 - -   0
-32 7 0
2 -33 0
4 -33 0
5 -33 0
7 -33 0
 -33 0
- -33 0
 -33 0
- -33 0
33 -2 -4 -5 -7 -  -   0
-33 7 0
2 -34 0
-3 -34 0
-4 -34 0
5 -34 0
-6 -34 0
7 -34 0
 -34 0
- -34 0
- -34 0
34 -2 3 4 -5 6 -7 -    0
-34 7 0
2 -35 0
-3 -35 0
4 -35 0
-5 -35 0
-6 -35 0
7 -35 0
 -35 0
- -35 0
- -35 0
35 -2 3 -4 5 6 -7 -    0
-35 7 0
2 -36 0
-3 -36 0
4 -36 0
5 -36 0
7 -36 0
 -36 0
- -36 0
- -36 0
 -36 0
36 -2 3 -4 -5 -7 -   -  0
-36 7 0
-7 8 9 10 11 12 13 14 15 16 17 18 19 20 21 22 23 24 25 26 27 28 29 30 31 32 33 34 35 36  0
2 -38 0
-4 -38 0
-5 -38 0
6 -38 0
38 -2 4 5 -6  0
-38 37 0
2 -39 0
4 -39 0
5 -39 0
-6 -39 0
39 -2 -4 -5 6  0
-39 37 0
-37 38 39  0
